440 453 452 499 500 501 498 519 518 497 496 465 464 463 462 461 460 459 458 457 456 455 2 3 4 1 0 5 573 572 6 7 8 9 10 11 14 15 16 17 18 19 20 568 569 570 571 466 467 468 469 470 495 494 471 472 473 474 567 27 26 25 24 21 13 12 23 22 28 29 31 30 32 36 37 38 35 33 34 558 559 560 561 562 563 565 566 564 549 548 550 551 101 102 100 99 98 97 96 95 94 89 88 87 86 85 90 93 92 91 555 554 553 552 556 557 41 40 39 42 43 44 45 46 47 48 49 50 84 51 52 54 53 55 56 83 82 57 58 59 81 80 79 78 62 61 60 63 64 76 77 75 74 73 119 118 120 121 122 123 71 72 65 66 67 68 70 69 124 125 126 127 128 129 130 131 132 133 134 135 136 137 138 139 140 141 151 150 149 152 148 147 146 142 143 144 145 158 157 153 156 159 155 154 165 164 166 167 163 168 162 160 161 113 112 111 110 114 115 116 117 106 105 104 103 547 546 545 544 543 541 542 107 109 108 173 174 175 172 170 171 169 180 181 179 182 186 185 183 184 194 195 196 197 198 199 200 201 202 204 203 208 207 206 205 209 210 211 212 213 214 215 216 217 223 224 222 221 220 218 219 193 192 191 190 226 225 189 227 228 229 230 231 533 532 531 489 488 534 487 535 536 188 187 178 177 176 540 538 537 539 478 477 479 480 476 475 482 481 483 484 485 486 490 491 492 493 524 525 526 523 522 521 520 517 514 515 516 502 503 504 505 308 309 310 311 451 312 313 316 314 315 374 375 376 377 378 379 380 381 390 389 388 391 392 393 394 395 396 371 372 373 322 323 324 297 321 320 319 317 318 305 306 304 307 303 301 302 508 507 506 509 510 511 513 512 527 528 529 530 233 232 234 235 236 237 240 239 238 246 247 245 244 243 242 241 248 249 250 251 252 254 253 255 256 257 300 258 259 260 261 262 263 264 266 265 299 298 267 271 272 269 268 270 296 295 294 293 291 292 273 274 275 290 289 288 276 277 278 279 282 281 280 287 286 285 284 283 334 335 336 337 338 339 333 332 331 330 340 341 329 328 325 326 327 366 342 343 344 345 346 347 348 349 350 351 415 416 414 413 417 419 418 410 411 412 356 355 353 352 354 357 358 359 360 361 362 363 364 365 367 368 369 370 398 397 399 400 401 402 403 404 405 406 407 408 409 384 383 385 387 386 382 425 424 423 422 421 420 426 427 428 429 431 430 432 433 434 435 436 437 438 454 439 443 444 445 442 446 447 448 449 450 441